networks/zoo_148_4321/zoo_148_4321-lower.txt
Number of groups: 77
Flow 18: {1 50 0} {50 19 0} {19 93 0} 
Flow 48: {9 16 0} {16 32 0} {32 49 0} {49 123 0} 
Flow 263: {4 1 0} {1 74 0} {74 73 0} {73 72 0} {72 146 0} 
Flow 299: {7 2 0} {2 68 0} {68 52 0} {52 48 0} {48 122 0} 
Flow 303: {5 8 0} {8 7 0} {7 53 0} {53 127 0} 
Flow 343: {6 11 0} {11 12 0} {12 28 0} {28 102 0} 
Flow 457: {51 50 0} {50 124 0} 
Flow 501: {34 29 0} {29 103 0} 
Flow 603: {10 30 0} {30 34 0} {34 61 0} {61 135 0} 
Flow 626: {12 86 0} 
Flow 708: {58 60 0} {60 134 0} 
Flow 745: {14 49 0} {49 32 0} {32 106 0} 
Flow 748: {15 27 0} {27 10 0} {10 40 0} {40 37 0} 
Flow 793: {13 15 0} {15 16 0} {16 90 0} 
Flow 915: {16 15 0} {15 89 0} 
Flow 1026: {17 18 0} {18 67 0} {67 141 0} 
Flow 1115: {19 20 0} {20 22 0} {22 96 0} 
Flow 1206: {20 19 0} {19 50 0} {50 1 0} {1 2 0} {2 57 0} {57 58 0} {58 132 0} 
Flow 1238: {21 50 0} {50 23 0} {23 24 0} {24 25 0} {25 99 0} 
Flow 1289: {22 23 0} {23 97 0} 
Flow 1356: {23 50 0} {50 21 0} {21 95 0} 
Flow 1490: {24 26 0} {26 17 0} {17 91 0} 
Flow 1512: {25 24 0} {24 42 0} {42 18 0} {18 43 0} {43 45 0} {45 119 0} 
Flow 1546: {26 24 0} {24 23 0} {23 4 0} {4 2 0} {2 7 0} {7 81 0} 
Flow 1642: {38 39 0} {39 113 0} 
Flow 1684: {28 12 0} {12 11 0} {11 4 0} {4 42 0} {42 116 0} 
Flow 1712: {29 34 0} 
Flow 1823: {31 30 0} {30 40 0} {40 38 0} {38 33 0} {33 107 0} 
Flow 1903: {33 35 0} {35 67 0} {67 43 0} {43 117 0} 
Flow 1918: {30 10 0} {10 84 0} 
Flow 1967: {34 63 0} {63 137 0} 
Flow 2013: {35 48 0} {48 52 0} {52 126 0} 
Flow 2083: {36 37 0} {37 38 0} {38 64 0} {64 138 0} 
Flow 2107: {37 36 0} {36 67 0} {67 4 0} {4 23 0} {23 22 0} {22 20 0} {20 94 0} 
Flow 2113: {18 17 0} {17 26 0} {26 100 0} 
Flow 2121: {37 40 0} {40 114 0} 
Flow 2218: {39 38 0} {38 68 0} {68 2 0} {2 4 0} {4 78 0} 
Flow 2251: {40 10 0} {10 27 0} {27 101 0} 
Flow 2274: {34 56 0} {56 130 0} 
Flow 2323: {41 44 0} {44 46 0} {46 120 0} 
Flow 2383: {67 35 0} {35 109 0} 
Flow 2392: {42 4 0} {4 67 0} {67 69 0} {69 47 0} {47 121 0} 
Flow 2477: {43 18 0} {18 41 0} {41 62 0} {62 136 0} 
Flow 2620: {45 47 0} {47 69 0} {69 70 0} {70 144 0} 
Flow 2661: {44 41 0} {41 115 0} 
Flow 2686: {46 43 0} {43 67 0} {67 68 0} {68 142 0} 
Flow 2734: {47 45 0} {45 43 0} {43 46 0} {46 44 0} {44 118 0} 
Flow 2795: {48 35 0} {35 33 0} {33 38 0} {38 37 0} {37 111 0} 
Flow 2840: {49 14 0} {14 13 0} {13 87 0} 
Flow 2889: {32 16 0} {16 9 0} {9 68 0} {68 69 0} {69 143 0} 
Flow 2899: {50 51 0} {51 6 0} {6 8 0} {8 82 0} 
Flow 3045: {52 68 0} {68 38 0} {38 112 0} 
Flow 3082: {53 7 0} {7 8 0} {8 6 0} {6 80 0} 
Flow 3130: {54 58 0} {58 57 0} {57 2 0} {2 76 0} 
Flow 3147: {8 5 0} {5 79 0} 
Flow 3182: {11 6 0} {6 51 0} {51 125 0} 
Flow 3187: {55 12 0} {12 57 0} {57 131 0} 
Flow 3231: {56 34 0} {34 108 0} 
Flow 3316: {2 1 0} {1 59 0} {59 133 0} 
Flow 3446: {59 60 0} {60 58 0} {58 54 0} {54 128 0} 
Flow 3511: {57 12 0} {12 55 0} {55 129 0} 
Flow 3519: {60 59 0} {59 1 0} {1 4 0} {4 3 0} {3 66 0} {66 140 0} 
Flow 3538: {61 34 0} {34 30 0} {30 9 0} {9 27 0} {27 67 0} {67 18 0} {18 92 0} 
Flow 3568: {62 41 0} {41 18 0} {18 42 0} {42 1 0} {1 75 0} 
Flow 3575: {27 9 0} {9 30 0} {30 104 0} 
Flow 3587: {63 34 0} 
Flow 3629: {64 38 0} {38 40 0} {40 30 0} {30 31 0} {31 105 0} 
Flow 3664: {3 4 0} {4 11 0} {11 85 0} 
Flow 3780: {66 65 0} {65 73 0} {73 74 0} {74 148 0} 
Flow 3886: {68 67 0} {67 36 0} {36 110 0} 
Flow 3915: {73 65 0} {65 139 0} 
Flow 3937: {69 67 0} {67 27 0} {27 15 0} {15 13 0} {13 14 0} {14 88 0} 
Flow 4059: {70 71 0} {71 72 0} {72 73 0} {73 147 0} 
Flow 4125: {65 66 0} {66 3 0} {3 77 0} 
Flow 4131: {71 70 0} {70 69 0} {69 68 0} {68 9 0} {9 83 0} 
Flow 4144: {74 1 0} {1 42 0} {42 24 0} {24 98 0} 
Flow 4319: {72 71 0} {71 145 0} 
Time taken running everything: 36 seconds
