networks/zoo_148_4321/zoo_148_4321-lower.sol
<?xml version = "1.0" encoding="UTF-8" standalone="yes"?>
<CPLEXSolution version="1.2">
 <header
   problemName="networks/zoo_148_4321/zoo_148_4321-lower.lp"
   solutionName="incumbent"
   solutionIndex="-1"
   objectiveValue="77"
   solutionTypeValue="3"
   solutionTypeString="primal"
   solutionStatusValue="101"
   solutionStatusString="integer optimal solution"
   solutionMethodString="mip"
   primalFeasible="1"
   dualFeasible="1"
   MIPNodes="0"
   MIPIterations="18"
   writeLevel="3"/>
 <quality
   epInt="1.0000000000000001e-05"
   epRHS="9.9999999999999995e-07"
   maxIntInfeas="0"
   maxPrimalInfeas="0"
   maxX="1"
   maxSlack="1"/>
 <variables>
  <variable name="Y(18,19)" index="2534" value="1"/>
  <variable name="Y(48,49)" index="7004" value="1"/>
  <variable name="Y(263,72)" index="38847" value="1"/>
  <variable name="Y(299,48)" index="44151" value="1"/>
  <variable name="Y(303,53)" index="44748" value="1"/>
  <variable name="Y(343,28)" index="50643" value="1"/>
  <variable name="Y(457,50)" index="67537" value="1"/>
  <variable name="Y(501,29)" index="74028" value="1"/>
  <variable name="Y(603,61)" index="89156" value="1"/>
  <variable name="Y(626,12)" index="92511" value="1"/>
  <variable name="Y(708,60)" index="104695" value="1"/>
  <variable name="Y(745,32)" index="110143" value="1"/>
  <variable name="Y(748,40)" index="110595" value="1"/>
  <variable name="Y(793,16)" index="117231" value="1"/>
  <variable name="Y(915,15)" index="135286" value="1"/>
  <variable name="Y(1026,67)" index="151766" value="1"/>
  <variable name="Y(1115,22)" index="164893" value="1"/>
  <variable name="Y(1206,58)" index="178397" value="1"/>
  <variable name="Y(1238,25)" index="183100" value="1"/>
  <variable name="Y(1289,23)" index="190646" value="1"/>
  <variable name="Y(1356,21)" index="200560" value="1"/>
  <variable name="Y(1490,17)" index="220388" value="1"/>
  <variable name="Y(1512,45)" index="223672" value="1"/>
  <variable name="Y(1546,7)" index="228666" value="1"/>
  <variable name="Y(1642,39)" index="242906" value="1"/>
  <variable name="Y(1684,42)" index="249125" value="1"/>
  <variable name="Y(1712,29)" index="253256" value="1"/>
  <variable name="Y(1823,33)" index="269688" value="1"/>
  <variable name="Y(1903,43)" index="281538" value="1"/>
  <variable name="Y(1918,10)" index="283725" value="1"/>
  <variable name="Y(1967,63)" index="291030" value="1"/>
  <variable name="Y(2013,52)" index="297827" value="1"/>
  <variable name="Y(2083,64)" index="308199" value="1"/>
  <variable name="Y(2107,20)" index="311707" value="1"/>
  <variable name="Y(2113,26)" index="312601" value="1"/>
  <variable name="Y(2121,40)" index="313799" value="1"/>
  <variable name="Y(2218,4)" index="328119" value="1"/>
  <variable name="Y(2251,27)" index="333026" value="1"/>
  <variable name="Y(2274,56)" index="336459" value="1"/>
  <variable name="Y(2323,46)" index="343701" value="1"/>
  <variable name="Y(2383,35)" index="352570" value="1"/>
  <variable name="Y(2392,47)" index="353914" value="1"/>
  <variable name="Y(2477,62)" index="366509" value="1"/>
  <variable name="Y(2620,70)" index="387681" value="1"/>
  <variable name="Y(2661,41)" index="393720" value="1"/>
  <variable name="Y(2686,68)" index="397447" value="1"/>
  <variable name="Y(2734,44)" index="404527" value="1"/>
  <variable name="Y(2795,37)" index="413548" value="1"/>
  <variable name="Y(2840,13)" index="420184" value="1"/>
  <variable name="Y(2889,69)" index="427492" value="1"/>
  <variable name="Y(2899,8)" index="428911" value="1"/>
  <variable name="Y(3045,38)" index="450549" value="1"/>
  <variable name="Y(3082,6)" index="455993" value="1"/>
  <variable name="Y(3130,2)" index="463093" value="1"/>
  <variable name="Y(3147,5)" index="465612" value="1"/>
  <variable name="Y(3182,51)" index="470838" value="1"/>
  <variable name="Y(3187,57)" index="471584" value="1"/>
  <variable name="Y(3231,34)" index="478073" value="1"/>
  <variable name="Y(3316,59)" index="490678" value="1"/>
  <variable name="Y(3446,54)" index="509913" value="1"/>
  <variable name="Y(3511,55)" index="519534" value="1"/>
  <variable name="Y(3519,66)" index="520729" value="1"/>
  <variable name="Y(3538,18)" index="523493" value="1"/>
  <variable name="Y(3568,1)" index="527916" value="1"/>
  <variable name="Y(3575,30)" index="528981" value="1"/>
  <variable name="Y(3587,63)" index="530790" value="1"/>
  <variable name="Y(3629,31)" index="536974" value="1"/>
  <variable name="Y(3664,11)" index="542134" value="1"/>
  <variable name="Y(3780,74)" index="559365" value="1"/>
  <variable name="Y(3886,36)" index="575015" value="1"/>
  <variable name="Y(3915,65)" index="579336" value="1"/>
  <variable name="Y(3937,14)" index="582541" value="1"/>
  <variable name="Y(4059,73)" index="600656" value="1"/>
  <variable name="Y(4125,3)" index="610354" value="1"/>
  <variable name="Y(4131,9)" index="611248" value="1"/>
  <variable name="Y(4144,24)" index="613187" value="1"/>
  <variable name="Y(4319,71)" index="639134" value="1"/>
  <variable name="X(1,2,1206)" index="640713" value="1"/>
  <variable name="X(1,4,3519)" index="647347" value="1"/>
  <variable name="X(1,42,4144)" index="652293" value="1"/>
  <variable name="X(1,50,18)" index="652488" value="1"/>
  <variable name="X(1,59,3316)" index="660107" value="1"/>
  <variable name="X(1,74,263)" index="661375" value="1"/>
  <variable name="X(1,75,3568)" index="669001" value="1"/>
  <variable name="X(2,1,3316)" index="673070" value="1"/>
  <variable name="X(2,4,2218)" index="676293" value="1"/>
  <variable name="X(2,7,1546)" index="679942" value="1"/>
  <variable name="X(2,57,1206)" index="683923" value="1"/>
  <variable name="X(2,68,299)" index="687337" value="1"/>
  <variable name="X(2,76,3130)" index="694489" value="1"/>
  <variable name="X(3,4,3664)" index="699344" value="1"/>
  <variable name="X(3,66,3519)" index="703520" value="1"/>
  <variable name="X(3,77,4125)" index="708447" value="1"/>
  <variable name="X(4,1,263)" index="708906" value="1"/>
  <variable name="X(4,2,1546)" index="714510" value="1"/>
  <variable name="X(4,3,3519)" index="720804" value="1"/>
  <variable name="X(4,11,3664)" index="725270" value="1"/>
  <variable name="X(4,23,2107)" index="728034" value="1"/>
  <variable name="X(4,42,1684)" index="731932" value="1"/>
  <variable name="X(4,67,2392)" index="736961" value="1"/>
  <variable name="X(4,78,2218)" index="741108" value="1"/>
  <variable name="X(5,8,303)" index="743514" value="1"/>
  <variable name="X(5,79,3147)" index="750679" value="1"/>
  <variable name="X(6,8,2899)" index="754752" value="1"/>
  <variable name="X(6,11,343)" index="756517" value="1"/>
  <variable name="X(6,51,3182)" index="763677" value="1"/>
  <variable name="X(6,80,3082)" index="767898" value="1"/>
  <variable name="X(7,2,299)" index="769436" value="1"/>
  <variable name="X(7,8,3082)" index="776540" value="1"/>
  <variable name="X(7,53,303)" index="778082" value="1"/>
  <variable name="X(7,81,1546)" index="783646" value="1"/>
  <variable name="X(8,5,3147)" index="789568" value="1"/>
  <variable name="X(8,6,3082)" index="793824" value="1"/>
  <variable name="X(8,7,303)" index="795366" value="1"/>
  <variable name="X(8,82,2899)" index="802283" value="1"/>
  <variable name="X(9,16,48)" index="803753" value="1"/>
  <variable name="X(9,27,3538)" index="811564" value="1"/>
  <variable name="X(9,30,3575)" index="815922" value="1"/>
  <variable name="X(9,68,2889)" index="819557" value="1"/>
  <variable name="X(9,83,4131)" index="825120" value="1"/>
  <variable name="X(10,27,2251)" index="827561" value="1"/>
  <variable name="X(10,30,603)" index="830234" value="1"/>
  <variable name="X(10,40,748)" index="834700" value="1"/>
  <variable name="X(10,84,1918)" index="840191" value="1"/>
  <variable name="X(11,4,1684)" index="844278" value="1"/>
  <variable name="X(11,6,3182)" index="850097" value="1"/>
  <variable name="X(11,12,343)" index="851579" value="1"/>
  <variable name="X(11,85,3664)" index="859221" value="1"/>
  <variable name="X(12,11,1684)" index="861562" value="1"/>
  <variable name="X(12,28,343)" index="864542" value="1"/>
  <variable name="X(12,55,3511)" index="872031" value="1"/>
  <variable name="X(12,57,3187)" index="876028" value="1"/>
  <variable name="X(12,86,626)" index="877788" value="1"/>
  <variable name="X(13,14,3937)" index="885420" value="1"/>
  <variable name="X(13,15,793)" index="886597" value="1"/>
  <variable name="X(13,87,2840)" index="892965" value="1"/>
  <variable name="X(14,13,2840)" index="897286" value="1"/>
  <variable name="X(14,49,745)" index="899512" value="1"/>
  <variable name="X(14,88,3937)" index="907025" value="1"/>
  <variable name="X(15,13,3937)" index="911346" value="1"/>
  <variable name="X(15,16,793)" index="912523" value="1"/>
  <variable name="X(15,27,748)" index="916799" value="1"/>
  <variable name="X(15,89,915)" index="921287" value="1"/>
  <variable name="X(16,9,2889)" index="927582" value="1"/>
  <variable name="X(16,15,915)" index="929929" value="1"/>
  <variable name="X(16,32,48)" index="933383" value="1"/>
  <variable name="X(16,90,793)" index="938449" value="1"/>
  <variable name="X(17,18,1026)" index="943003" value="1"/>
  <variable name="X(17,26,2113)" index="948411" value="1"/>
  <variable name="X(17,91,1490)" index="952109" value="1"/>
  <variable name="X(18,17,2113)" index="957053" value="1"/>
  <variable name="X(18,41,2477)" index="961738" value="1"/>
  <variable name="X(18,42,3568)" index="967150" value="1"/>
  <variable name="X(18,43,1512)" index="969415" value="1"/>
  <variable name="X(18,67,1026)" index="973250" value="1"/>
  <variable name="X(18,92,3538)" index="980083" value="1"/>
  <variable name="X(19,20,1115)" index="981981" value="1"/>
  <variable name="X(19,50,1206)" index="986393" value="1"/>
  <variable name="X(19,93,18)" index="989526" value="1"/>
  <variable name="X(20,19,1206)" index="995035" value="1"/>
  <variable name="X(20,22,1115)" index="999265" value="1"/>
  <variable name="X(20,94,2107)" index="1004578" value="1"/>
  <variable name="X(21,50,1238)" index="1008030" value="1"/>
  <variable name="X(21,95,1356)" index="1012469" value="1"/>
  <variable name="X(22,20,2107)" index="1017541" value="1"/>
  <variable name="X(22,23,1289)" index="1021044" value="1"/>
  <variable name="X(22,96,1115)" index="1025191" value="1"/>
  <variable name="X(23,4,1546)" index="1029943" value="1"/>
  <variable name="X(23,22,2107)" index="1034825" value="1"/>
  <variable name="X(23,24,1238)" index="1038277" value="1"/>
  <variable name="X(23,50,1356)" index="1042716" value="1"/>
  <variable name="X(23,97,1289)" index="1046970" value="1"/>
  <variable name="X(24,23,1546)" index="1051548" value="1"/>
  <variable name="X(24,25,1238)" index="1055561" value="1"/>
  <variable name="X(24,26,1490)" index="1060134" value="1"/>
  <variable name="X(24,42,1512)" index="1064477" value="1"/>
  <variable name="X(24,98,4144)" index="1071430" value="1"/>
  <variable name="X(25,24,1512)" index="1073119" value="1"/>
  <variable name="X(25,99,1238)" index="1077166" value="1"/>
  <variable name="X(26,17,1490)" index="1081739" value="1"/>
  <variable name="X(26,24,1546)" index="1086116" value="1"/>
  <variable name="X(26,100,2113)" index="1091004" value="1"/>
  <variable name="X(27,9,3575)" index="1096787" value="1"/>
  <variable name="X(27,10,748)" index="1098281" value="1"/>
  <variable name="X(27,15,3937)" index="1105791" value="1"/>
  <variable name="X(27,67,3538)" index="1109713" value="1"/>
  <variable name="X(27,101,2251)" index="1112747" value="1"/>
  <variable name="X(28,12,1684)" index="1116501" value="1"/>
  <variable name="X(28,102,343)" index="1119481" value="1"/>
  <variable name="X(29,34,1712)" index="1125171" value="1"/>
  <variable name="X(29,103,501)" index="1128281" value="1"/>
  <variable name="X(30,9,3538)" index="1135639" value="1"/>
  <variable name="X(30,10,1918)" index="1138340" value="1"/>
  <variable name="X(30,31,3629)" index="1144372" value="1"/>
  <variable name="X(30,34,603)" index="1145667" value="1"/>
  <variable name="X(30,40,1823)" index="1151208" value="1"/>
  <variable name="X(30,104,3575)" index="1157281" value="1"/>
  <variable name="X(31,30,1823)" index="1159850" value="1"/>
  <variable name="X(31,105,3629)" index="1165977" value="1"/>
  <variable name="X(32,16,2889)" index="1169558" value="1"/>
  <variable name="X(32,49,48)" index="1171038" value="1"/>
  <variable name="X(32,106,745)" index="1176056" value="1"/>
  <variable name="X(33,35,1903)" index="1181535" value="1"/>
  <variable name="X(33,38,2795)" index="1186748" value="1"/>
  <variable name="X(33,107,1823)" index="1190097" value="1"/>
  <variable name="X(34,29,501)" index="1193096" value="1"/>
  <variable name="X(34,30,3538)" index="1200454" value="1"/>
  <variable name="X(34,56,2274)" index="1203511" value="1"/>
  <variable name="X(34,61,603)" index="1206161" value="1"/>
  <variable name="X(34,63,1967)" index="1211846" value="1"/>
  <variable name="X(34,108,3231)" index="1217431" value="1"/>
  <variable name="X(35,33,2795)" index="1221316" value="1"/>
  <variable name="X(35,48,2013)" index="1224855" value="1"/>
  <variable name="X(35,67,1903)" index="1229066" value="1"/>
  <variable name="X(35,109,2383)" index="1233867" value="1"/>
  <variable name="X(36,37,2083)" index="1237888" value="1"/>
  <variable name="X(36,67,2107)" index="1242233" value="1"/>
  <variable name="X(36,110,3886)" index="1248333" value="1"/>
  <variable name="X(37,36,2107)" index="1250875" value="1"/>
  <variable name="X(37,38,2083)" index="1255172" value="1"/>
  <variable name="X(37,40,2121)" index="1259531" value="1"/>
  <variable name="X(37,111,2795)" index="1264526" value="1"/>
  <variable name="X(38,33,1823)" index="1267875" value="1"/>
  <variable name="X(38,37,2795)" index="1273168" value="1"/>
  <variable name="X(38,39,1642)" index="1276336" value="1"/>
  <variable name="X(38,40,3629)" index="1282644" value="1"/>
  <variable name="X(38,64,2083)" index="1285419" value="1"/>
  <variable name="X(38,68,2218)" index="1289875" value="1"/>
  <variable name="X(38,112,3045)" index="1295023" value="1"/>
  <variable name="X(39,38,2218)" index="1298517" value="1"/>
  <variable name="X(39,113,1642)" index="1302262" value="1"/>
  <variable name="X(40,10,2251)" index="1307192" value="1"/>
  <variable name="X(40,30,3629)" index="1312891" value="1"/>
  <variable name="X(40,37,748)" index="1314331" value="1"/>
  <variable name="X(40,38,1823)" index="1319727" value="1"/>
  <variable name="X(40,114,2121)" index="1324346" value="1"/>
  <variable name="X(41,18,3568)" index="1330114" value="1"/>
  <variable name="X(41,44,2323)" index="1333190" value="1"/>
  <variable name="X(41,62,2477)" index="1337665" value="1"/>
  <variable name="X(41,115,2661)" index="1342170" value="1"/>
  <variable name="X(42,1,3568)" index="1347398" value="1"/>
  <variable name="X(42,4,2392)" index="1350543" value="1"/>
  <variable name="X(42,18,1512)" index="1353984" value="1"/>
  <variable name="X(42,24,4144)" index="1360937" value="1"/>
  <variable name="X(42,116,1684)" index="1362798" value="1"/>
  <variable name="X(43,18,2477)" index="1367912" value="1"/>
  <variable name="X(43,45,1512)" index="1371268" value="1"/>
  <variable name="X(43,46,2734)" index="1376811" value="1"/>
  <variable name="X(43,67,2686)" index="1381084" value="1"/>
  <variable name="X(43,117,1903)" index="1384622" value="1"/>
  <variable name="X(44,41,2661)" index="1389701" value="1"/>
  <variable name="X(44,46,2323)" index="1393684" value="1"/>
  <variable name="X(44,118,2734)" index="1398416" value="1"/>
  <variable name="X(45,43,2734)" index="1402737" value="1"/>
  <variable name="X(45,47,2620)" index="1406944" value="1"/>
  <variable name="X(45,119,1512)" index="1410157" value="1"/>
  <variable name="X(46,43,2686)" index="1415652" value="1"/>
  <variable name="X(46,44,2734)" index="1420021" value="1"/>
  <variable name="X(46,120,2323)" index="1423931" value="1"/>
  <variable name="X(47,45,2734)" index="1428663" value="1"/>
  <variable name="X(47,69,2620)" index="1432870" value="1"/>
  <variable name="X(47,121,2392)" index="1436963" value="1"/>
  <variable name="X(48,35,2795)" index="1441687" value="1"/>
  <variable name="X(48,52,2013)" index="1445226" value="1"/>
  <variable name="X(48,122,299)" index="1447833" value="1"/>
  <variable name="X(49,14,2840)" index="1454695" value="1"/>
  <variable name="X(49,32,745)" index="1456921" value="1"/>
  <variable name="X(49,123,48)" index="1460545" value="1"/>
  <variable name="X(50,1,1206)" index="1466024" value="1"/>
  <variable name="X(50,19,18)" index="1469157" value="1"/>
  <variable name="X(50,21,1356)" index="1474816" value="1"/>
  <variable name="X(50,23,1238)" index="1479019" value="1"/>
  <variable name="X(50,51,2899)" index="1485001" value="1"/>
  <variable name="X(50,124,457)" index="1486880" value="1"/>
  <variable name="X(51,6,2899)" index="1493643" value="1"/>
  <variable name="X(51,50,457)" index="1495522" value="1"/>
  <variable name="X(51,125,3182)" index="1502568" value="1"/>
  <variable name="X(52,48,299)" index="1504006" value="1"/>
  <variable name="X(52,68,3045)" index="1511073" value="1"/>
  <variable name="X(52,126,2013)" index="1514362" value="1"/>
  <variable name="X(53,7,3082)" index="1519752" value="1"/>
  <variable name="X(53,127,303)" index="1521294" value="1"/>
  <variable name="X(54,58,3130)" index="1528442" value="1"/>
  <variable name="X(54,128,3446)" index="1533079" value="1"/>
  <variable name="X(55,12,3187)" index="1537141" value="1"/>
  <variable name="X(55,129,3511)" index="1541786" value="1"/>
  <variable name="X(56,34,3231)" index="1545827" value="1"/>
  <variable name="X(56,130,2274)" index="1549191" value="1"/>
  <variable name="X(57,2,3130)" index="1554368" value="1"/>
  <variable name="X(57,12,3511)" index="1559070" value="1"/>
  <variable name="X(57,58,1206)" index="1561086" value="1"/>
  <variable name="X(57,131,3187)" index="1567388" value="1"/>
  <variable name="X(58,54,3446)" index="1571968" value="1"/>
  <variable name="X(58,57,3130)" index="1575973" value="1"/>
  <variable name="X(58,60,708)" index="1577872" value="1"/>
  <variable name="X(58,132,1206)" index="1582691" value="1"/>
  <variable name="X(59,1,3519)" index="1589325" value="1"/>
  <variable name="X(59,60,3446)" index="1593573" value="1"/>
  <variable name="X(59,133,3316)" index="1597764" value="1"/>
  <variable name="X(60,58,3446)" index="1602215" value="1"/>
  <variable name="X(60,59,3519)" index="1606609" value="1"/>
  <variable name="X(60,134,708)" index="1608119" value="1"/>
  <variable name="X(61,34,3538)" index="1615270" value="1"/>
  <variable name="X(61,135,603)" index="1616656" value="1"/>
  <variable name="X(62,41,3568)" index="1623942" value="1"/>
  <variable name="X(62,136,2477)" index="1627172" value="1"/>
  <variable name="X(63,34,3587)" index="1632603" value="1"/>
  <variable name="X(63,137,1967)" index="1635304" value="1"/>
  <variable name="X(64,38,3629)" index="1641287" value="1"/>
  <variable name="X(64,138,2083)" index="1644062" value="1"/>
  <variable name="X(65,66,4125)" index="1650425" value="1"/>
  <variable name="X(65,73,3780)" index="1654401" value="1"/>
  <variable name="X(65,139,3915)" index="1658857" value="1"/>
  <variable name="X(66,3,4125)" index="1663388" value="1"/>
  <variable name="X(66,65,3780)" index="1667364" value="1"/>
  <variable name="X(66,140,3519)" index="1671424" value="1"/>
  <variable name="X(67,4,2107)" index="1674333" value="1"/>
  <variable name="X(67,18,3538)" index="1680085" value="1"/>
  <variable name="X(67,27,3937)" index="1684805" value="1"/>
  <variable name="X(67,35,2383)" index="1687572" value="1"/>
  <variable name="X(67,36,3886)" index="1693396" value="1"/>
  <variable name="X(67,43,1903)" index="1695734" value="1"/>
  <variable name="X(67,68,2686)" index="1700838" value="1"/>
  <variable name="X(67,69,2392)" index="1704865" value="1"/>
  <variable name="X(67,141,1026)" index="1707820" value="1"/>
  <variable name="X(68,2,2218)" index="1713333" value="1"/>
  <variable name="X(68,9,4131)" index="1719567" value="1"/>
  <variable name="X(68,38,3045)" index="1722802" value="1"/>
  <variable name="X(68,52,299)" index="1724377" value="1"/>
  <variable name="X(68,67,3886)" index="1732285" value="1"/>
  <variable name="X(68,69,2889)" index="1735609" value="1"/>
  <variable name="X(68,142,2686)" index="1739727" value="1"/>
  <variable name="X(69,47,2392)" index="1743754" value="1"/>
  <variable name="X(69,67,3937)" index="1749620" value="1"/>
  <variable name="X(69,68,4131)" index="1754135" value="1"/>
  <variable name="X(69,70,2620)" index="1756945" value="1"/>
  <variable name="X(69,143,2889)" index="1761535" value="1"/>
  <variable name="X(70,69,4131)" index="1767098" value="1"/>
  <variable name="X(70,71,4059)" index="1771347" value="1"/>
  <variable name="X(70,144,2620)" index="1774229" value="1"/>
  <variable name="X(71,70,4131)" index="1780061" value="1"/>
  <variable name="X(71,72,4059)" index="1784310" value="1"/>
  <variable name="X(71,145,4319)" index="1788891" value="1"/>
  <variable name="X(72,71,4319)" index="1793212" value="1"/>
  <variable name="X(72,73,4059)" index="1797273" value="1"/>
  <variable name="X(72,146,263)" index="1797798" value="1"/>
  <variable name="X(73,65,3915)" index="1805771" value="1"/>
  <variable name="X(73,72,263)" index="1806440" value="1"/>
  <variable name="X(73,74,3780)" index="1814278" value="1"/>
  <variable name="X(73,147,4059)" index="1818878" value="1"/>
  <variable name="X(74,1,4144)" index="1823284" value="1"/>
  <variable name="X(74,73,263)" index="1823724" value="1"/>
  <variable name="X(74,148,3780)" index="1831562" value="1"/>
 </variables>
</CPLEXSolution>
